7809.0
0 1 0 0 0 1 1 0 0 0 1 0 1 1 1 1 0 0 0 1 
15 6 19 10 12 13 5 5 15 1 5 14 6 13 6 13 12 5 5 15 10 10 10 14 14 14 1 19 19 15 1 1 19 19 15 5 13 13 10 10 10 13 13 13 12 5 5 5 5 19 15 5 10 14 14 10 6 6 6 12 13 5 1 5 15 15 10 19 1 1 15 10 10 10 10 19 19 19 19 19 19 5 12 12 13 13 6 5 12 1 13 13 13 6 6 12 13 13 12 13 